(set-logic QF_S)
(declare-fun var0 () String)
(declare-fun var1 () String)
(declare-fun var2 () String)
(declare-fun var3 () String)
(declare-fun var4 () String)
(declare-fun var5 () String)
(declare-fun var6 () String)
(declare-fun var7 () String)
(declare-fun var8 () String)
(declare-fun var9 () String)
(declare-fun var10 () String)
(declare-fun var11 () String)
(declare-fun var12 () String)
(declare-fun var13 () String)
(declare-fun var14 () String)
(declare-fun var15 () String)
(declare-fun var16 () String)
(declare-fun var17 () String)
(declare-fun var18 () String)
(declare-fun var19 () String)
(declare-fun var20 () String)
(declare-fun var21 () String)
(declare-fun var22 () String)
(declare-fun var23 () String)
(declare-fun var24 () String)
(declare-fun var25 () String)
(declare-fun var26 () String)
(declare-fun var27 () String)
(declare-fun var28 () String)
(declare-fun var29 () String)
(declare-fun var30 () String)
(declare-fun var31 () String)
(declare-fun var32 () String)
(declare-fun var33 () String)
(declare-fun var34 () String)
(declare-fun var35 () String)
(declare-fun var36 () String)
(declare-fun var37 () String)
(declare-fun var38 () String)
(declare-fun var39 () String)
(declare-fun var40 () String)
(declare-fun var41 () String)
(declare-fun var42 () String)
(declare-fun var43 () String)
(declare-fun var44 () String)
(declare-fun var45 () String)
(declare-fun var46 () String)
(declare-fun var47 () String)
(declare-fun var48 () String)
(declare-fun var49 () String)
(declare-fun var50 () String)
(declare-fun var51 () String)
(declare-fun var52 () String)
(declare-fun var53 () String)
(declare-fun var54 () String)
(declare-fun var55 () String)
(declare-fun var56 () String)
(declare-fun var57 () String)
(declare-fun var58 () String)
(declare-fun var59 () String)
(declare-fun var60 () String)
(assert (= var0 (str.++ var1 var2)))
(assert (= var2 (str.++ var3 var4)))
(assert (= var4 (str.++ var5 var6)))
(assert (= var6 (str.++ var7 var8)))
(assert (= var8 (str.++ var9 var10)))
(assert (= var10 (str.++ var11 var12)))
(assert (= var12 (str.++ var13 var14)))
(assert (= var14 (str.++ var15 var16)))
(assert (= var16 (str.++ var17 var18)))
(assert (= var18 (str.++ var19 var20)))
(assert (= var20 (str.++ var21 var22)))
(assert (= var22 (str.++ var23 var24)))
(assert (= var24 (str.++ var25 var26)))
(assert (= var26 (str.++ var27 var28)))
(assert (= var28 (str.++ var29 var30)))
(assert (= var30 (str.++ var31 var32)))
(assert (= var32 (str.++ var33 var34)))
(assert (= var34 (str.++ var35 var36)))
(assert (= var36 (str.++ var37 var38)))
(assert (= var38 (str.++ var39 var40)))
(assert (= var40 (str.++ var41 var42)))
(assert (= var42 (str.++ var43 var44)))
(assert (= var44 (str.++ var45 var46)))
(assert (= var46 (str.++ var47 var48)))
(assert (= var48 (str.++ var49 var50)))
(assert (= var50 (str.++ var51 var52)))
(assert (= var52 (str.++ var53 var54)))
(assert (= var54 (str.++ var55 var56)))
(assert (= var56 (str.++ var57 var58)))
(assert (= var58 (str.++ var59 var60)))
(assert (= var0 "solution"))
(assert (= "@" (str.at var4 734)))
(assert (= "o" (str.at var56 42)))
(assert (= "D" (str.at var29 722)))
(assert (= "9" (str.at var49 107)))
(assert (= "{" (str.at var25 953)))
(assert (= "B" (str.at var35 947)))
(assert (= "8" (str.at var50 753)))
(assert (= "D" (str.at var41 37)))
(assert (= "V" (str.at var13 121)))
(assert (= "f" (str.at var53 401)))
(assert (= "E" (str.at var53 234)))
(assert (= "y" (str.at var58 777)))
(assert (= "W" (str.at var46 291)))
(assert (= "t" (str.at var55 124)))
(assert (= ">" (str.at var13 539)))
(assert (= "B" (str.at var17 399)))
(assert (= "&" (str.at var39 818)))
(assert (= "$" (str.at var0 219)))
(assert (= "5" (str.at var28 658)))
(assert (= "k" (str.at var45 842)))
(assert (= "m" (str.at var37 660)))
(assert (= "@" (str.at var42 910)))
(assert (= "3" (str.at var31 734)))
(assert (= "@" (str.at var21 674)))
(assert (= "p" (str.at var41 117)))
(assert (= "E" (str.at var29 34)))
(assert (= "A" (str.at var57 785)))
(assert (= "[" (str.at var38 420)))
(assert (= "s" (str.at var43 588)))
(assert (= "U" (str.at var32 376)))
(assert (= "j" (str.at var17 676)))
(assert (= "1" (str.at var46 10)))
(assert (= "B" (str.at var51 592)))
(assert (= "z" (str.at var54 634)))
(assert (= "_" (str.at var30 171)))
(assert (= "*" (str.at var4 25)))
(assert (= "%" (str.at var9 462)))
(assert (= "." (str.at var21 201)))
(assert (= "i" (str.at var58 349)))
(assert (= "d" (str.at var11 147)))
(assert (= "x" (str.at var10 394)))
(assert (= "." (str.at var38 194)))
(assert (= "^" (str.at var54 863)))
(assert (= "C" (str.at var44 680)))
(assert (= "{" (str.at var34 671)))
(assert (= "+" (str.at var11 162)))
(assert (= "h" (str.at var6 886)))
(assert (= "K" (str.at var55 871)))
(assert (= "q" (str.at var15 795)))
(assert (= "d" (str.at var22 925)))
(assert (= "`" (str.at var51 752)))
(assert (= "g" (str.at var2 757)))
(assert (= "u" (str.at var17 468)))
(assert (= "-" (str.at var12 736)))
(assert (= "t" (str.at var8 800)))
(assert (= "g" (str.at var43 459)))
(assert (= ">" (str.at var8 97)))
(assert (= "*" (str.at var36 944)))
(assert (= "S" (str.at var5 448)))
(assert (= "3" (str.at var18 261)))
(assert (= "j" (str.at var18 374)))
(assert (= "#" (str.at var52 299)))
(assert (= "}" (str.at var23 971)))
(assert (= "a" (str.at var59 689)))
(assert (= "B" (str.at var10 423)))
(assert (= """" (str.at var24 306)))
(assert (= "." (str.at var4 145)))
(assert (= "F" (str.at var38 587)))
(assert (= "d" (str.at var22 420)))
(assert (= "k" (str.at var9 151)))
(assert (= "e" (str.at var11 769)))
(assert (= "r" (str.at var10 741)))
(assert (= "7" (str.at var46 896)))
(assert (= "s" (str.at var41 294)))
(assert (= "T" (str.at var43 356)))
(assert (= "f" (str.at var19 210)))
(assert (= "M" (str.at var47 486)))
(assert (= "b" (str.at var38 404)))
(assert (= "_" (str.at var12 917)))
(assert (= "(" (str.at var27 751)))
(assert (= "g" (str.at var48 643)))
(assert (= "f" (str.at var5 22)))
(assert (= "l" (str.at var22 895)))
(assert (= "6" (str.at var42 550)))
(assert (= ":" (str.at var19 437)))
(assert (= "+" (str.at var17 58)))
(assert (= "c" (str.at var50 949)))
(assert (= "%" (str.at var7 820)))
(assert (= "H" (str.at var11 498)))
(assert (= "t" (str.at var15 690)))
(assert (= "c" (str.at var24 861)))
(assert (= "p" (str.at var32 149)))
(assert (= "H" (str.at var50 873)))
(assert (= "v" (str.at var5 113)))
(assert (= "S" (str.at var21 571)))
(assert (= "w" (str.at var24 877)))
(assert (= "x" (str.at var24 560)))
(assert (= "b" (str.at var17 723)))
(assert (= "m" (str.at var57 433)))
(assert (= "f" (str.at var11 485)))
(assert (= "`" (str.at var47 249)))
(assert (= "%" (str.at var43 31)))
(assert (= "t" (str.at var49 398)))
(assert (= "5" (str.at var48 461)))
(assert (= "`" (str.at var6 133)))
(assert (= "<" (str.at var43 901)))
(assert (= "{" (str.at var44 447)))
(assert (= "F" (str.at var58 779)))
(assert (= "e" (str.at var54 610)))
(assert (= "H" (str.at var6 535)))
(assert (= "`" (str.at var18 517)))
(assert (= "&" (str.at var28 756)))
(assert (= "<" (str.at var49 720)))
(assert (= "," (str.at var58 506)))
(assert (= "m" (str.at var25 468)))
(assert (= "c" (str.at var41 982)))
(assert (= "&" (str.at var24 794)))
(assert (= "T" (str.at var43 677)))
(assert (= "C" (str.at var4 976)))
(assert (= "0" (str.at var41 100)))
(assert (= "*" (str.at var15 476)))
(assert (= ":" (str.at var44 607)))
(assert (= "w" (str.at var26 814)))
(assert (= "Q" (str.at var50 181)))
(assert (= "|" (str.at var48 697)))
(assert (= "{" (str.at var44 656)))
(assert (= "7" (str.at var53 32)))
(assert (= "x" (str.at var56 129)))
(assert (= "Y" (str.at var44 246)))
(assert (= "h" (str.at var38 619)))
(assert (= "7" (str.at var45 738)))
(assert (= "f" (str.at var39 227)))
(assert (= "a" (str.at var18 751)))
(assert (= "c" (str.at var46 603)))
(assert (= "H" (str.at var11 362)))
(assert (= "l" (str.at var41 492)))
(assert (= "{" (str.at var60 869)))
(assert (= "7" (str.at var23 407)))
(assert (= "q" (str.at var1 863)))
(assert (= "%" (str.at var13 94)))
(assert (= "[" (str.at var28 136)))
(assert (= "5" (str.at var46 286)))
(assert (= "*" (str.at var57 875)))
(assert (= "!" (str.at var35 261)))
(assert (= "y" (str.at var60 421)))
(assert (= "r" (str.at var25 142)))
(assert (= "*" (str.at var48 215)))
(assert (= "y" (str.at var48 986)))
(assert (= "\\" (str.at var43 34)))
(assert (= "2" (str.at var50 141)))
(assert (= "u" (str.at var29 352)))
(assert (= "$" (str.at var16 724)))
(assert (= "_" (str.at var13 58)))
(assert (= "2" (str.at var16 364)))
(assert (= "C" (str.at var30 997)))
(assert (= "G" (str.at var4 589)))
(assert (= "m" (str.at var41 935)))
(assert (= "W" (str.at var6 481)))
(assert (= "e" (str.at var5 892)))
(assert (= "k" (str.at var30 52)))
(assert (= "I" (str.at var18 8)))
(assert (= "+" (str.at var1 678)))
(assert (= "k" (str.at var0 924)))
(assert (= "$" (str.at var29 313)))
(assert (= "!" (str.at var22 339)))
(assert (= "7" (str.at var7 633)))
(assert (= "A" (str.at var58 28)))
(assert (= "7" (str.at var33 532)))
(assert (= "d" (str.at var42 429)))
(assert (= "9" (str.at var44 111)))
(assert (= "," (str.at var44 477)))
(assert (= "c" (str.at var47 810)))
(assert (= "N" (str.at var13 657)))
(assert (= "l" (str.at var2 357)))
(assert (= "i" (str.at var52 307)))
(assert (= "F" (str.at var41 956)))
(assert (= "D" (str.at var26 342)))
(assert (= "+" (str.at var28 92)))
(assert (= "v" (str.at var57 681)))
(assert (= "8" (str.at var46 737)))
(assert (= "," (str.at var16 985)))
(assert (= ">" (str.at var17 101)))
(assert (= "5" (str.at var2 79)))
(assert (= "L" (str.at var35 67)))
(assert (= "%" (str.at var1 814)))
(assert (= "`" (str.at var51 548)))
(assert (= "B" (str.at var13 933)))
(assert (= "[" (str.at var36 531)))
(assert (= "P" (str.at var41 702)))
(assert (= "<" (str.at var51 90)))
(assert (= "3" (str.at var59 219)))
(assert (= "G" (str.at var36 703)))
(assert (= "@" (str.at var53 217)))
(assert (= ")" (str.at var50 185)))
(assert (= "<" (str.at var44 26)))
(assert (= "V" (str.at var24 685)))
(assert (= ")" (str.at var7 801)))
(assert (= ";" (str.at var13 719)))
(assert (= "V" (str.at var5 709)))
(assert (= "2" (str.at var40 978)))
(assert (= "K" (str.at var10 159)))
(assert (= "Y" (str.at var45 721)))
(assert (= "5" (str.at var4 776)))
(assert (= "p" (str.at var26 787)))
(assert (= "4" (str.at var48 906)))
(assert (= "C" (str.at var23 425)))
(assert (= "(" (str.at var20 38)))
(assert (= "|" (str.at var54 51)))
(assert (= "8" (str.at var36 335)))
(assert (= "[" (str.at var4 378)))
(assert (= "Q" (str.at var34 557)))
(assert (= "W" (str.at var48 377)))
(assert (= "P" (str.at var19 960)))
(assert (= "3" (str.at var7 299)))
(assert (= "4" (str.at var45 352)))
(assert (= "8" (str.at var17 656)))
(assert (= "]" (str.at var56 252)))
(assert (= "7" (str.at var18 181)))
(assert (= "q" (str.at var18 278)))
(assert (= ">" (str.at var42 53)))
(assert (= "\\" (str.at var32 420)))
(assert (= "A" (str.at var21 511)))
(assert (= "W" (str.at var60 691)))
(assert (= "u" (str.at var1 571)))
(assert (= "Y" (str.at var32 526)))
(assert (= "." (str.at var52 806)))
(assert (= ">" (str.at var12 93)))
(assert (= "j" (str.at var45 441)))
(assert (= "V" (str.at var60 521)))
(assert (= "c" (str.at var37 391)))
(assert (= "q" (str.at var41 420)))
(assert (= ":" (str.at var47 466)))
(assert (= "x" (str.at var1 291)))
(assert (= "8" (str.at var18 199)))
(assert (= "h" (str.at var26 346)))
(assert (= "P" (str.at var31 703)))
(assert (= "{" (str.at var22 505)))
(assert (= "L" (str.at var57 55)))
(assert (= "r" (str.at var28 634)))
(assert (= "s" (str.at var37 37)))
(assert (= "C" (str.at var14 515)))
(assert (= "6" (str.at var2 603)))
(assert (= "#" (str.at var16 567)))
(assert (= "e" (str.at var52 295)))
(assert (= "N" (str.at var52 940)))
(assert (= "u" (str.at var20 347)))
(assert (= "'" (str.at var58 603)))
(assert (= "e" (str.at var48 346)))
(assert (= "/" (str.at var13 63)))
(assert (= "e" (str.at var18 290)))
(assert (= "&" (str.at var56 773)))
(assert (= "1" (str.at var47 976)))
(assert (= "-" (str.at var56 620)))
(assert (= "*" (str.at var49 747)))
(assert (= "A" (str.at var15 799)))
(assert (= "1" (str.at var48 729)))
(assert (= "\\" (str.at var9 225)))
(assert (= "s" (str.at var23 734)))
(assert (= ">" (str.at var33 400)))
(assert (= "3" (str.at var39 198)))
(assert (= "p" (str.at var22 882)))
(assert (= "x" (str.at var11 137)))
(assert (= "2" (str.at var48 224)))
(assert (= "w" (str.at var35 126)))
(assert (= "," (str.at var56 167)))
(assert (= "O" (str.at var49 883)))
(assert (= ">" (str.at var1 698)))
(assert (= "(" (str.at var20 870)))
(assert (= "V" (str.at var24 992)))
(assert (= "P" (str.at var0 571)))
(assert (= "D" (str.at var48 324)))
(assert (= "W" (str.at var51 718)))
(assert (= "t" (str.at var52 402)))
(assert (= "v" (str.at var4 759)))
(assert (= "." (str.at var40 574)))
(assert (= "2" (str.at var56 840)))
(assert (= "7" (str.at var36 886)))
(assert (= "M" (str.at var4 275)))
(assert (= "9" (str.at var56 558)))
(assert (= "|" (str.at var45 808)))
(assert (= "N" (str.at var27 634)))
(assert (= "Y" (str.at var14 523)))
(assert (= "x" (str.at var14 883)))
(assert (= "!" (str.at var36 51)))
(assert (= "s" (str.at var16 655)))
(assert (= """" (str.at var19 557)))
(assert (= "c" (str.at var54 875)))
(assert (= "G" (str.at var59 506)))
(assert (= "o" (str.at var55 695)))
(assert (= "<" (str.at var14 2)))
(assert (= "y" (str.at var30 148)))
(assert (= "m" (str.at var37 496)))
(assert (= "l" (str.at var5 553)))
(assert (= "O" (str.at var23 335)))
(assert (= "(" (str.at var1 569)))
(assert (= "t" (str.at var28 160)))
(assert (= "1" (str.at var35 98)))
(assert (= "." (str.at var26 427)))
(assert (= "G" (str.at var4 432)))
(assert (= "o" (str.at var21 652)))
(assert (= "a" (str.at var55 507)))
(assert (= "w" (str.at var55 31)))
(assert (= "=" (str.at var31 561)))
(assert (= "]" (str.at var34 895)))
(assert (= "i" (str.at var56 463)))
(assert (= "+" (str.at var8 138)))
(assert (= "-" (str.at var6 350)))
(assert (= "*" (str.at var0 906)))
(assert (= "(" (str.at var49 684)))
(assert (= "U" (str.at var6 146)))
(assert (= "." (str.at var34 498)))
(assert (= "b" (str.at var18 480)))
(assert (= "/" (str.at var21 582)))
(assert (= "y" (str.at var20 906)))
(assert (= "f" (str.at var32 192)))
(assert (= "0" (str.at var2 881)))
(assert (= "E" (str.at var22 243)))
(assert (= "F" (str.at var42 740)))
(assert (= "." (str.at var16 173)))
(assert (= "m" (str.at var20 218)))
(assert (= "0" (str.at var50 481)))
(assert (= "E" (str.at var21 305)))
(assert (= "v" (str.at var22 971)))
(assert (= "O" (str.at var22 977)))
(assert (= "J" (str.at var50 205)))
(assert (= "`" (str.at var28 233)))
(assert (= "'" (str.at var51 598)))
(assert (= "(" (str.at var34 143)))
(assert (= "h" (str.at var5 658)))
(assert (= "r" (str.at var19 574)))
(assert (= "B" (str.at var32 894)))
(assert (= "3" (str.at var36 994)))
(assert (= "{" (str.at var42 523)))
(assert (= "d" (str.at var26 466)))
(assert (= "7" (str.at var49 706)))
(assert (= "{" (str.at var32 229)))
(assert (= "c" (str.at var26 904)))
(assert (= "s" (str.at var20 730)))
(assert (= "Z" (str.at var57 428)))
(assert (= "C" (str.at var24 352)))
(assert (= "." (str.at var1 975)))
(assert (= """" (str.at var50 35)))
(assert (= "T" (str.at var56 325)))
(assert (= "8" (str.at var36 12)))
(assert (= "D" (str.at var42 156)))
(assert (= "<" (str.at var8 464)))
(assert (= "^" (str.at var5 362)))
(assert (= "G" (str.at var21 784)))
(assert (= "l" (str.at var37 631)))
(assert (= "," (str.at var6 334)))
(assert (= "E" (str.at var29 471)))
(assert (= "O" (str.at var2 381)))
(assert (= "j" (str.at var7 512)))
(assert (= "F" (str.at var40 179)))
(assert (= "K" (str.at var34 744)))
(assert (= "H" (str.at var39 602)))
(assert (= "T" (str.at var54 808)))
(assert (= "," (str.at var52 867)))
(assert (= "%" (str.at var28 220)))
(assert (= "7" (str.at var9 83)))
(assert (= "}" (str.at var19 551)))
(assert (= ")" (str.at var8 221)))
(assert (= "~" (str.at var26 291)))
(assert (= "=" (str.at var60 820)))
(assert (= "6" (str.at var10 653)))
(assert (= "<" (str.at var46 306)))
(assert (= "U" (str.at var16 4)))
(assert (= "/" (str.at var23 624)))
(assert (= "}" (str.at var17 407)))
(assert (= "h" (str.at var11 753)))
(assert (= "j" (str.at var47 510)))
(assert (= "w" (str.at var17 712)))
(assert (= "U" (str.at var2 907)))
(assert (= "@" (str.at var38 92)))
(assert (= "Z" (str.at var1 134)))
(assert (= "4" (str.at var57 21)))
(assert (= "W" (str.at var51 346)))
(assert (= "o" (str.at var31 216)))
(assert (= "j" (str.at var9 169)))
(assert (= ")" (str.at var46 880)))
(assert (= "K" (str.at var18 992)))
(assert (= "K" (str.at var21 405)))
(assert (= "N" (str.at var34 790)))
(assert (= "j" (str.at var38 38)))
(assert (= "C" (str.at var25 943)))
(assert (= "D" (str.at var12 306)))
(assert (= "c" (str.at var38 383)))
(assert (= "U" (str.at var51 748)))
(assert (= "a" (str.at var27 391)))
(assert (= "O" (str.at var23 397)))
(assert (= "K" (str.at var8 60)))
(assert (= "g" (str.at var16 396)))
(assert (= "4" (str.at var10 449)))
(assert (= "Q" (str.at var38 553)))
(assert (= "Z" (str.at var5 285)))
(assert (= "\\" (str.at var2 806)))
(assert (= "D" (str.at var39 427)))
(assert (= "v" (str.at var55 574)))
(assert (= "0" (str.at var18 703)))
(assert (= "/" (str.at var39 675)))
(assert (= "O" (str.at var6 610)))
(assert (= "." (str.at var12 734)))
(assert (= "h" (str.at var57 762)))
(assert (= ")" (str.at var38 477)))
(assert (= "*" (str.at var31 616)))
(assert (= "!" (str.at var44 245)))
(assert (= "8" (str.at var56 980)))
(assert (= "s" (str.at var47 591)))
(assert (= "n" (str.at var9 287)))
(assert (= "b" (str.at var3 204)))
(assert (= "." (str.at var49 308)))
(assert (= "c" (str.at var27 333)))
(assert (= "0" (str.at var47 668)))
(assert (= "J" (str.at var60 589)))
(assert (= "3" (str.at var19 838)))
(assert (= "3" (str.at var22 867)))
(assert (= "F" (str.at var12 691)))
(assert (= "l" (str.at var45 787)))
(assert (= "." (str.at var53 969)))
(assert (= "," (str.at var10 841)))
(assert (= "j" (str.at var16 582)))
(assert (= "(" (str.at var26 777)))
(assert (= "{" (str.at var18 653)))
(assert (= "k" (str.at var18 597)))
(assert (= "N" (str.at var26 166)))
(assert (= "G" (str.at var3 703)))
(assert (= "n" (str.at var16 116)))
(assert (= "k" (str.at var38 605)))
(assert (= "Q" (str.at var25 444)))
(assert (= "X" (str.at var41 17)))
(assert (= "7" (str.at var15 429)))
(assert (= "l" (str.at var42 11)))
(assert (= "8" (str.at var45 656)))
(assert (= """" (str.at var44 385)))
(assert (= "?" (str.at var22 122)))
(assert (= "(" (str.at var56 30)))
(assert (= ";" (str.at var9 487)))
(assert (= "j" (str.at var17 108)))
(assert (= "I" (str.at var53 988)))
(assert (= "J" (str.at var14 234)))
(assert (= "R" (str.at var50 145)))
(assert (= "`" (str.at var25 865)))
(assert (= "I" (str.at var7 591)))
(assert (= "," (str.at var27 428)))
(assert (= "j" (str.at var21 491)))
(assert (= "0" (str.at var37 94)))
(assert (= ")" (str.at var28 64)))
(assert (= "[" (str.at var50 189)))
(assert (= "+" (str.at var5 877)))
(assert (= "q" (str.at var19 329)))
(assert (= "Y" (str.at var50 629)))
(assert (= "p" (str.at var28 971)))
(assert (= "X" (str.at var8 17)))
(assert (= "i" (str.at var59 583)))
(assert (= "P" (str.at var13 37)))
(assert (= "u" (str.at var41 98)))
(assert (= "<" (str.at var52 685)))
(assert (= "h" (str.at var44 95)))
(assert (= "x" (str.at var46 612)))
(assert (= "V" (str.at var42 449)))
(assert (= "h" (str.at var55 755)))
(assert (= "x" (str.at var5 935)))
(assert (= "~" (str.at var57 310)))
(assert (= "r" (str.at var10 439)))
(assert (= "~" (str.at var42 304)))
(assert (= "T" (str.at var0 820)))
(assert (= "|" (str.at var38 244)))
(assert (= "I" (str.at var28 531)))
(assert (= "w" (str.at var29 835)))
(assert (= "?" (str.at var25 619)))
(assert (= "c" (str.at var37 43)))
(assert (= ">" (str.at var32 701)))
(assert (= "}" (str.at var42 992)))
(assert (= "X" (str.at var49 119)))
(assert (= "T" (str.at var2 773)))
(assert (= "n" (str.at var24 811)))
(assert (= "s" (str.at var5 634)))
(assert (= "T" (str.at var60 548)))
(assert (= "6" (str.at var12 799)))
(assert (= "&" (str.at var3 625)))
(assert (= "c" (str.at var55 633)))
(assert (= "Q" (str.at var44 504)))
(assert (= ";" (str.at var55 355)))
(assert (= "E" (str.at var57 422)))
(assert (= "Q" (str.at var28 799)))
(assert (= "<" (str.at var42 130)))
(assert (= "W" (str.at var28 328)))
(assert (= "T" (str.at var7 123)))
(assert (= "t" (str.at var48 161)))
(assert (= ">" (str.at var8 226)))
(assert (= ")" (str.at var50 606)))
(assert (= "+" (str.at var26 518)))
(assert (= "B" (str.at var1 35)))
(assert (= "Y" (str.at var56 631)))
(assert (= "V" (str.at var56 772)))
(assert (= "/" (str.at var46 400)))
(assert (= "&" (str.at var58 163)))
(assert (= "1" (str.at var7 39)))
(assert (= "=" (str.at var3 675)))
(assert (= "1" (str.at var37 461)))
(assert (= "." (str.at var49 14)))
(assert (= "[" (str.at var33 666)))
(assert (= "6" (str.at var50 790)))
(assert (= "u" (str.at var11 410)))
(assert (= "k" (str.at var30 923)))
(assert (= "k" (str.at var36 125)))
(assert (= "X" (str.at var11 141)))
(assert (= ":" (str.at var32 691)))
(assert (= "C" (str.at var4 527)))
(assert (= "o" (str.at var46 587)))
(assert (= "8" (str.at var30 881)))
(assert (= "7" (str.at var0 29)))
(assert (= "O" (str.at var39 882)))
(assert (= "a" (str.at var19 235)))
(assert (= "N" (str.at var56 751)))
(assert (= "p" (str.at var9 312)))
(assert (= "]" (str.at var57 152)))
(assert (= "P" (str.at var34 135)))
(assert (= "3" (str.at var31 759)))
(assert (= "#" (str.at var11 915)))
(assert (= "z" (str.at var42 336)))
(assert (= "z" (str.at var42 905)))
(assert (= "A" (str.at var24 943)))
(assert (= "K" (str.at var40 401)))
(assert (= "Z" (str.at var14 236)))
(assert (= "|" (str.at var56 959)))
(assert (= "R" (str.at var38 480)))
(assert (= "i" (str.at var31 587)))
(assert (= "a" (str.at var20 664)))
(assert (= "N" (str.at var57 316)))
(assert (= "M" (str.at var58 367)))
(assert (= "D" (str.at var45 657)))
(assert (= "z" (str.at var0 607)))
(assert (= "D" (str.at var44 404)))
(assert (= "[" (str.at var33 619)))
(assert (= ";" (str.at var39 954)))
(assert (= "t" (str.at var11 602)))
(assert (= "^" (str.at var7 530)))
(assert (= "(" (str.at var35 208)))
(assert (= "x" (str.at var2 84)))
(assert (= "Z" (str.at var34 399)))
(assert (= "0" (str.at var3 747)))
(assert (= ")" (str.at var35 295)))
(assert (= "~" (str.at var52 154)))
(assert (= "D" (str.at var13 593)))
(assert (= "p" (str.at var54 544)))
(assert (= "?" (str.at var50 436)))
(assert (= ";" (str.at var7 556)))
(assert (= ":" (str.at var53 861)))
(assert (= "i" (str.at var29 150)))
(assert (= "u" (str.at var18 577)))
(assert (= "4" (str.at var18 812)))
(assert (= "[" (str.at var46 906)))
(assert (= "a" (str.at var5 718)))
(assert (= "Z" (str.at var17 523)))
(assert (= "I" (str.at var34 192)))
(assert (= "|" (str.at var19 788)))
(assert (= "a" (str.at var53 490)))
(assert (= "_" (str.at var26 956)))
(assert (= "$" (str.at var26 151)))
(assert (= "V" (str.at var41 717)))
(assert (= "\\" (str.at var56 352)))
(assert (= "z" (str.at var30 458)))
(assert (= "F" (str.at var4 753)))
(assert (= "R" (str.at var5 46)))
(assert (= ":" (str.at var10 475)))
(assert (= "r" (str.at var56 920)))
(assert (= "?" (str.at var14 437)))
(assert (= "K" (str.at var7 773)))
(assert (= "s" (str.at var28 394)))
(assert (= "-" (str.at var13 13)))
(assert (= "l" (str.at var12 733)))
(assert (= "K" (str.at var15 761)))
(assert (= "1" (str.at var22 294)))
(assert (= "," (str.at var56 116)))
(assert (= "M" (str.at var33 325)))
(assert (= "&" (str.at var55 503)))
(assert (= "O" (str.at var45 837)))
(assert (= """" (str.at var12 229)))
(assert (= "c" (str.at var43 76)))
(assert (= """" (str.at var37 179)))
(assert (= "v" (str.at var7 714)))
(assert (= "T" (str.at var31 517)))
(assert (= """" (str.at var24 190)))
(assert (= ":" (str.at var17 641)))
(assert (= "S" (str.at var38 146)))
(assert (= ">" (str.at var47 124)))
(assert (= "r" (str.at var5 2)))
(assert (= "3" (str.at var50 59)))
(assert (= "'" (str.at var54 42)))
(assert (= "h" (str.at var0 279)))
(assert (= "/" (str.at var22 613)))
(assert (= "s" (str.at var34 759)))
(assert (= "|" (str.at var4 658)))
(assert (= "v" (str.at var31 884)))
(assert (= "O" (str.at var20 98)))
(assert (= "*" (str.at var17 653)))
(assert (= "i" (str.at var13 948)))
(assert (= "g" (str.at var11 738)))
(assert (= "'" (str.at var24 664)))
(assert (= "V" (str.at var49 241)))
(assert (= "U" (str.at var9 978)))
(assert (= "_" (str.at var39 390)))
(assert (= "B" (str.at var51 413)))
(assert (= "K" (str.at var7 158)))
(assert (= "_" (str.at var48 637)))
(assert (= "^" (str.at var13 641)))
(assert (= "Z" (str.at var55 80)))
(assert (= "C" (str.at var27 916)))
(assert (= "~" (str.at var53 920)))
(assert (= "!" (str.at var30 623)))
(assert (= "C" (str.at var28 212)))
(assert (= "y" (str.at var16 24)))
(assert (= "]" (str.at var42 161)))
(assert (= "H" (str.at var30 956)))
(assert (= "<" (str.at var3 718)))
(assert (= "G" (str.at var15 832)))
(assert (= "\\" (str.at var44 211)))
(assert (= "g" (str.at var32 17)))
(assert (= "_" (str.at var14 991)))
(assert (= "%" (str.at var4 253)))
(assert (= "G" (str.at var10 276)))
(assert (= "\\" (str.at var57 75)))
(assert (= "v" (str.at var4 750)))
(assert (= "n" (str.at var58 549)))
(assert (= "\\" (str.at var26 237)))
(assert (= "d" (str.at var7 676)))
(assert (= "F" (str.at var42 209)))
(assert (= "J" (str.at var26 409)))
(assert (= "h" (str.at var6 438)))
(assert (= "&" (str.at var31 251)))
(assert (= "9" (str.at var16 755)))
(assert (= "\\" (str.at var5 5)))
(assert (= "$" (str.at var1 271)))
(assert (= ">" (str.at var10 501)))
(assert (= "x" (str.at var19 793)))
(assert (= "k" (str.at var41 823)))
(assert (= "1" (str.at var35 828)))
(assert (= "h" (str.at var7 344)))
(assert (= "9" (str.at var4 466)))
(assert (= "g" (str.at var3 431)))
(assert (= "N" (str.at var2 904)))
(assert (= "Z" (str.at var59 514)))
(assert (= "h" (str.at var5 324)))
(assert (= "v" (str.at var26 628)))
(assert (= "o" (str.at var30 2)))
(assert (= "Q" (str.at var4 960)))
(assert (= "Q" (str.at var21 855)))
(assert (= "Y" (str.at var0 48)))
(assert (= "A" (str.at var33 52)))
(assert (= "*" (str.at var19 184)))
(assert (= "=" (str.at var53 607)))
(assert (= "/" (str.at var18 713)))
(assert (= ">" (str.at var26 797)))
(assert (= "V" (str.at var55 735)))
(assert (= "W" (str.at var45 54)))
(assert (= "P" (str.at var21 319)))
(assert (= "," (str.at var48 353)))
(assert (= "Y" (str.at var37 553)))
(assert (= "A" (str.at var10 164)))
(assert (= "5" (str.at var18 321)))
(assert (= "!" (str.at var43 490)))
(assert (= "," (str.at var29 154)))
(assert (= "%" (str.at var23 95)))
(assert (= "H" (str.at var44 371)))
(assert (= "7" (str.at var46 673)))
(assert (= ")" (str.at var44 500)))
(assert (= "K" (str.at var38 18)))
(assert (= "<" (str.at var44 807)))
(assert (= "," (str.at var19 447)))
(assert (= "6" (str.at var60 986)))
(assert (= "." (str.at var58 839)))
(assert (= "X" (str.at var46 708)))
(assert (= "f" (str.at var10 431)))
(assert (= "Y" (str.at var4 666)))
(assert (= "E" (str.at var39 417)))
(assert (= ">" (str.at var44 444)))
(assert (= "p" (str.at var40 534)))
(assert (= "D" (str.at var49 451)))
(assert (= "<" (str.at var46 945)))
(assert (= """" (str.at var13 962)))
(assert (= "k" (str.at var25 425)))
(assert (= "g" (str.at var10 28)))
(assert (= "b" (str.at var23 572)))
(assert (= "4" (str.at var53 230)))
(assert (= "9" (str.at var47 863)))
(assert (= "m" (str.at var48 380)))
(assert (= "C" (str.at var33 182)))
(assert (= "C" (str.at var47 930)))
(assert (= "!" (str.at var29 917)))
(assert (= "u" (str.at var11 561)))
(assert (= "/" (str.at var42 472)))
(assert (= "+" (str.at var17 265)))
(assert (= "u" (str.at var40 723)))
(assert (= "+" (str.at var37 838)))
(assert (= "B" (str.at var5 336)))
(assert (= "s" (str.at var37 338)))
(assert (= "b" (str.at var55 668)))
(assert (= "C" (str.at var22 550)))
(assert (= "6" (str.at var5 689)))
(assert (= "-" (str.at var49 22)))
(assert (= "V" (str.at var33 845)))
(assert (= "Q" (str.at var15 181)))
(assert (= "<" (str.at var15 539)))
(assert (= "," (str.at var18 651)))
(assert (= "P" (str.at var35 599)))
(assert (= "k" (str.at var38 375)))
(assert (= "'" (str.at var38 72)))
(assert (= "r" (str.at var31 381)))
(assert (= "2" (str.at var18 537)))
(assert (= "S" (str.at var25 796)))
(assert (= ">" (str.at var57 79)))
(assert (= "k" (str.at var29 68)))
(assert (= "@" (str.at var28 669)))
(assert (= "{" (str.at var3 596)))
(assert (= "6" (str.at var7 853)))
(assert (= """" (str.at var38 754)))
(assert (= "}" (str.at var38 617)))
(assert (= "m" (str.at var6 736)))
(assert (= "8" (str.at var34 757)))
(assert (= ">" (str.at var32 746)))
(assert (= "D" (str.at var48 663)))
(assert (= "J" (str.at var14 681)))
(assert (= "H" (str.at var15 609)))
(assert (= "?" (str.at var39 469)))
(assert (= "u" (str.at var20 811)))
(assert (= "?" (str.at var33 908)))
(assert (= "s" (str.at var4 648)))
(assert (= "9" (str.at var55 536)))
(assert (= "{" (str.at var34 519)))
(assert (= "1" (str.at var39 839)))
(assert (= "J" (str.at var35 891)))
(assert (= "6" (str.at var58 143)))
(assert (= "O" (str.at var9 666)))
(assert (= "?" (str.at var55 81)))
(assert (= "$" (str.at var45 346)))
(assert (= "\\" (str.at var57 194)))
(assert (= "-" (str.at var50 432)))
(assert (= "o" (str.at var10 709)))
(assert (= "U" (str.at var37 372)))
(assert (= "L" (str.at var8 89)))
(assert (= "P" (str.at var26 4)))
(assert (= "X" (str.at var29 187)))
(assert (= "X" (str.at var38 883)))
(assert (= "_" (str.at var16 130)))
(assert (= "F" (str.at var52 89)))
(assert (= "s" (str.at var15 112)))
(assert (= "8" (str.at var40 651)))
(assert (= "8" (str.at var19 698)))
(assert (= "`" (str.at var12 926)))
(assert (= "$" (str.at var43 585)))
(assert (= "u" (str.at var22 308)))
(assert (= "*" (str.at var22 350)))
(assert (= "~" (str.at var46 252)))
(assert (= "y" (str.at var23 248)))
(assert (= "K" (str.at var39 362)))
(assert (= "z" (str.at var9 494)))
(assert (= "7" (str.at var43 667)))
(assert (= "T" (str.at var27 420)))
(assert (= "'" (str.at var50 699)))
(assert (= "Q" (str.at var29 734)))
(assert (= "7" (str.at var29 276)))
(assert (= ">" (str.at var26 360)))
(assert (= "d" (str.at var8 366)))
(assert (= "t" (str.at var14 8)))
(assert (= "t" (str.at var20 80)))
(assert (= "T" (str.at var20 203)))
(assert (= "[" (str.at var5 912)))
(assert (= "9" (str.at var30 464)))
(assert (= "<" (str.at var29 143)))
(assert (= "L" (str.at var55 600)))
(assert (= "]" (str.at var23 654)))
(assert (= "z" (str.at var6 314)))
(assert (= "%" (str.at var0 754)))
(assert (= "-" (str.at var32 948)))
(assert (= "m" (str.at var13 591)))
(assert (= "(" (str.at var18 345)))
(assert (= "M" (str.at var18 363)))
(assert (= "Y" (str.at var4 30)))
(assert (= "s" (str.at var52 999)))
(assert (= "8" (str.at var12 902)))
(assert (= "L" (str.at var55 478)))
(assert (= "c" (str.at var57 420)))
(assert (= "*" (str.at var53 865)))
(assert (= "Q" (str.at var10 773)))
(assert (= "K" (str.at var51 487)))
(assert (= "6" (str.at var9 486)))
(assert (= "Q" (str.at var21 44)))
(assert (= "_" (str.at var22 174)))
(assert (= "T" (str.at var25 918)))
(assert (= "y" (str.at var48 196)))
(assert (= "R" (str.at var26 774)))
(assert (= "'" (str.at var3 933)))
(assert (= "@" (str.at var52 229)))
(assert (= "k" (str.at var51 711)))
(assert (= "W" (str.at var12 75)))
(assert (= "D" (str.at var29 520)))
(assert (= "t" (str.at var25 588)))
(assert (= ":" (str.at var37 168)))
(assert (= "+" (str.at var31 20)))
(assert (= "]" (str.at var20 924)))
(assert (= "\\" (str.at var45 722)))
(assert (= "v" (str.at var1 93)))
(assert (= "X" (str.at var59 947)))
(assert (= "x" (str.at var48 734)))
(assert (= "V" (str.at var54 964)))
(assert (= "@" (str.at var29 511)))
(assert (= "G" (str.at var38 684)))
(assert (= """" (str.at var4 524)))
(assert (= "/" (str.at var14 755)))
(assert (= "S" (str.at var50 118)))
(assert (= "d" (str.at var2 939)))
(assert (= "E" (str.at var2 965)))
(assert (= "F" (str.at var51 388)))
(assert (= "d" (str.at var23 636)))
(assert (= "g" (str.at var36 581)))
(assert (= "V" (str.at var7 412)))
(assert (= "l" (str.at var18 754)))
(assert (= "O" (str.at var2 201)))
(assert (= "a" (str.at var12 221)))
(assert (= "T" (str.at var13 368)))
(assert (= "[" (str.at var42 735)))
(assert (= "b" (str.at var8 113)))
(assert (= "@" (str.at var40 500)))
(assert (= "+" (str.at var50 561)))
(assert (= "g" (str.at var44 684)))
(assert (= "b" (str.at var59 77)))
(assert (= "B" (str.at var46 53)))
(assert (= "9" (str.at var20 389)))
(assert (= "4" (str.at var45 273)))
(assert (= "o" (str.at var31 8)))
(assert (= "8" (str.at var46 110)))
(assert (= "7" (str.at var26 483)))
(assert (= "9" (str.at var37 392)))
(assert (= "9" (str.at var46 867)))
(assert (= "o" (str.at var0 303)))
(assert (= "d" (str.at var34 485)))
(assert (= "_" (str.at var49 231)))
(assert (= "I" (str.at var45 463)))
(assert (= "|" (str.at var17 771)))
(assert (= "q" (str.at var13 327)))
(assert (= "i" (str.at var42 659)))
(assert (= "m" (str.at var26 389)))
(assert (= "}" (str.at var44 878)))
(assert (= "t" (str.at var8 674)))
(assert (= "6" (str.at var6 640)))
(assert (= "/" (str.at var48 155)))
(assert (= ">" (str.at var57 91)))
(assert (= "0" (str.at var27 612)))
(assert (= ";" (str.at var14 822)))
(assert (= "W" (str.at var54 936)))
(assert (= "F" (str.at var9 878)))
(assert (= "i" (str.at var8 298)))
(assert (= "(" (str.at var13 470)))
(assert (= "l" (str.at var14 701)))
(assert (= "w" (str.at var14 467)))
(assert (= "-" (str.at var31 982)))
(assert (= "V" (str.at var30 397)))
(assert (= "m" (str.at var50 917)))
(assert (= "@" (str.at var35 829)))
(assert (= "7" (str.at var20 428)))
(assert (= "d" (str.at var13 165)))
(assert (= "t" (str.at var28 594)))
(assert (= "}" (str.at var17 511)))
(assert (= "8" (str.at var20 322)))
(assert (= "(" (str.at var51 595)))
(assert (= "|" (str.at var5 538)))
(assert (= "~" (str.at var37 590)))
(assert (= "@" (str.at var51 20)))
(assert (= ";" (str.at var45 702)))
(assert (= "7" (str.at var10 478)))
(assert (= "<" (str.at var22 852)))
(assert (= "'" (str.at var53 323)))
(assert (= "9" (str.at var60 515)))
(assert (= "l" (str.at var23 14)))
(assert (= "y" (str.at var32 494)))
(assert (= "c" (str.at var38 885)))
(assert (= "N" (str.at var59 633)))
(assert (= "J" (str.at var21 181)))
(assert (= "3" (str.at var50 80)))
(assert (= "2" (str.at var22 744)))
(check-sat)